(set-option :print-success true) 
(declare-const x Int)
(declare-const y Int)
(declare-const z Int)
(push)
(assert (= (+ x y) 10))
(assert (= (+ x (* 2 y)) 20))
(check-sat)
(pop) ; remove the two assertions
(push)
(assert (= (+ (* 3 x) y) 10))
(assert (= (+ (* 2 x) (* 2 y)) 21))
(check-sat)
(declare-const p Bool)
(pop)
